p edge 26 65
e 1 2
e 1 5
e 1 6
e 1 9
e 1 11
e 1 12
e 1 14
e 1 15
e 1 21
e 1 25
e 2 4
e 2 10
e 2 12
e 2 13
e 2 14
e 2 21
e 3 6
e 3 8
e 3 9
e 3 10
e 3 12
e 3 15
e 4 5
e 4 6
e 4 8
e 4 14
e 4 15
e 4 20
e 4 21
e 4 22
e 5 14
e 5 19
e 5 20
e 5 22
e 6 7
e 6 9
e 6 11
e 6 12
e 6 14
e 6 15
e 6 17
e 7 8
e 7 11
e 7 13
e 7 19
e 7 23
e 8 15
e 8 16
e 8 23
e 8 25
e 9 10
e 9 12
e 9 18
e 9 20
e 11 17
e 12 15
e 12 23
e 13 19
e 14 21
e 14 26
e 15 25
e 16 19
e 16 24
e 16 25
e 18 23
